NAME /Users/henri/Research/solvers/instances/idol-instances/robust/collection/spp_dkp_Lefebvre_et_al_2026/shortest_path_9_8/uncertainty_sets/discrete_knapsack
ROWS
 N  OBJ
 L  primal_lower
COLUMNS
    MARKER    'MARKER'                 'INTORG'
    y[0,1]     OBJ        0
    y[0,1]     primal_lower -2.23
    y[0,2]     OBJ        0
    y[0,2]     primal_lower -1.03
    y[0,3]     OBJ        0
    y[0,3]     primal_lower -1.15
    y[0,4]     OBJ        0
    y[0,4]     primal_lower -1.78
    y[0,5]     OBJ        0
    y[0,5]     primal_lower -1.7
    y[0,6]     OBJ        0
    y[0,6]     primal_lower -4.48
    y[0,7]     OBJ        0
    y[0,7]     primal_lower -1.84
    y[0,8]     OBJ        0
    y[0,8]     primal_lower -3.47
    y[1,0]     OBJ        0
    y[1,0]     primal_lower -3.42
    y[1,2]     OBJ        0
    y[1,2]     primal_lower -1.4
    y[1,3]     OBJ        0
    y[1,3]     primal_lower -1.56
    y[1,4]     OBJ        0
    y[1,4]     primal_lower -1.58
    y[1,5]     OBJ        0
    y[1,5]     primal_lower -0.65
    y[1,6]     OBJ        0
    y[1,6]     primal_lower -4.38
    y[1,8]     OBJ        0
    y[1,8]     primal_lower -4.09
    y[2,0]     OBJ        0
    y[2,0]     primal_lower -2.52
    y[2,1]     OBJ        0
    y[2,1]     primal_lower -1.41
    y[2,3]     OBJ        0
    y[2,3]     primal_lower -4
    y[2,5]     OBJ        0
    y[2,5]     primal_lower -3.04
    y[2,6]     OBJ        0
    y[2,6]     primal_lower -1.76
    y[2,8]     OBJ        0
    y[2,8]     primal_lower -2.28
    y[3,0]     OBJ        0
    y[3,0]     primal_lower -2.36
    y[3,1]     OBJ        0
    y[3,1]     primal_lower -4.18
    y[3,2]     OBJ        0
    y[3,2]     primal_lower -2.57
    y[3,5]     OBJ        0
    y[3,5]     primal_lower -3.01
    y[3,6]     OBJ        0
    y[3,6]     primal_lower -0.24
    y[3,8]     OBJ        0
    y[3,8]     primal_lower -1.47
    y[4,0]     OBJ        0
    y[4,0]     primal_lower -0.25
    y[4,1]     OBJ        0
    y[4,1]     primal_lower -0.81
    y[4,5]     OBJ        0
    y[4,5]     primal_lower -4.17
    y[4,7]     OBJ        0
    y[4,7]     primal_lower -4.22
    y[4,8]     OBJ        0
    y[4,8]     primal_lower -3.21
    y[5,0]     OBJ        0
    y[5,0]     primal_lower -3.3
    y[5,1]     OBJ        0
    y[5,1]     primal_lower -2.08
    y[5,2]     OBJ        0
    y[5,2]     primal_lower -4.19
    y[5,3]     OBJ        0
    y[5,3]     primal_lower -1.83
    y[5,4]     OBJ        0
    y[5,4]     primal_lower -3.07
    y[5,6]     OBJ        0
    y[5,6]     primal_lower -2.92
    y[5,7]     OBJ        0
    y[5,7]     primal_lower -2.69
    y[5,8]     OBJ        0
    y[5,8]     primal_lower -1
    y[6,0]     OBJ        0
    y[6,0]     primal_lower -3.07
    y[6,1]     OBJ        0
    y[6,1]     primal_lower -3.95
    y[6,2]     OBJ        0
    y[6,2]     primal_lower -3.59
    y[6,3]     OBJ        0
    y[6,3]     primal_lower -1.94
    y[6,5]     OBJ        0
    y[6,5]     primal_lower -4.13
    y[6,8]     OBJ        0
    y[6,8]     primal_lower -3.52
    y[7,0]     OBJ        0
    y[7,0]     primal_lower -3.27
    y[7,4]     OBJ        0
    y[7,4]     primal_lower -0.56
    y[7,5]     OBJ        0
    y[7,5]     primal_lower -4.12
    y[7,8]     OBJ        0
    y[7,8]     primal_lower -1.74
    y[8,0]     OBJ        0
    y[8,0]     primal_lower -1.33
    y[8,1]     OBJ        0
    y[8,1]     primal_lower -2.78
    y[8,2]     OBJ        0
    y[8,2]     primal_lower -2.11
    y[8,3]     OBJ        0
    y[8,3]     primal_lower -1.15
    y[8,4]     OBJ        0
    y[8,4]     primal_lower -3.78
    y[8,5]     OBJ        0
    y[8,5]     primal_lower -0.8
    y[8,6]     OBJ        0
    y[8,6]     primal_lower -1.02
    y[8,7]     OBJ        0
    y[8,7]     primal_lower -2.97
    u[0,1]     OBJ        0
    u[0,1]     primal_lower 88
    u[0,2]     OBJ        0
    u[0,2]     primal_lower 86
    u[0,3]     OBJ        0
    u[0,3]     primal_lower 100
    u[0,4]     OBJ        0
    u[0,4]     primal_lower 35
    u[0,5]     OBJ        0
    u[0,5]     primal_lower 74
    u[0,6]     OBJ        0
    u[0,6]     primal_lower 76
    u[0,7]     OBJ        0
    u[0,7]     primal_lower 79
    u[0,8]     OBJ        0
    u[0,8]     primal_lower 36
    u[1,0]     OBJ        0
    u[1,0]     primal_lower 76
    u[1,2]     OBJ        0
    u[1,2]     primal_lower 78
    u[1,3]     OBJ        0
    u[1,3]     primal_lower 50
    u[1,4]     OBJ        0
    u[1,4]     primal_lower 1
    u[1,5]     OBJ        0
    u[1,5]     primal_lower 89
    u[1,6]     OBJ        0
    u[1,6]     primal_lower 14
    u[1,8]     OBJ        0
    u[1,8]     primal_lower 60
    u[2,0]     OBJ        0
    u[2,0]     primal_lower 36
    u[2,1]     OBJ        0
    u[2,1]     primal_lower 89
    u[2,3]     OBJ        0
    u[2,3]     primal_lower 79
    u[2,5]     OBJ        0
    u[2,5]     primal_lower 14
    u[2,6]     OBJ        0
    u[2,6]     primal_lower 15
    u[2,8]     OBJ        0
    u[2,8]     primal_lower 12
    u[3,0]     OBJ        0
    u[3,0]     primal_lower 19
    u[3,1]     OBJ        0
    u[3,1]     primal_lower 43
    u[3,2]     OBJ        0
    u[3,2]     primal_lower 11
    u[3,5]     OBJ        0
    u[3,5]     primal_lower 76
    u[3,6]     OBJ        0
    u[3,6]     primal_lower 47
    u[3,8]     OBJ        0
    u[3,8]     primal_lower 96
    u[4,0]     OBJ        0
    u[4,0]     primal_lower 10
    u[4,1]     OBJ        0
    u[4,1]     primal_lower 5
    u[4,5]     OBJ        0
    u[4,5]     primal_lower 15
    u[4,7]     OBJ        0
    u[4,7]     primal_lower 45
    u[4,8]     OBJ        0
    u[4,8]     primal_lower 28
    u[5,0]     OBJ        0
    u[5,0]     primal_lower 65
    u[5,1]     OBJ        0
    u[5,1]     primal_lower 86
    u[5,2]     OBJ        0
    u[5,2]     primal_lower 68
    u[5,3]     OBJ        0
    u[5,3]     primal_lower 10
    u[5,4]     OBJ        0
    u[5,4]     primal_lower 29
    u[5,6]     OBJ        0
    u[5,6]     primal_lower 83
    u[5,7]     OBJ        0
    u[5,7]     primal_lower 18
    u[5,8]     OBJ        0
    u[5,8]     primal_lower 6
    u[6,0]     OBJ        0
    u[6,0]     primal_lower 37
    u[6,1]     OBJ        0
    u[6,1]     primal_lower 82
    u[6,2]     OBJ        0
    u[6,2]     primal_lower 84
    u[6,3]     OBJ        0
    u[6,3]     primal_lower 95
    u[6,5]     OBJ        0
    u[6,5]     primal_lower 12
    u[6,8]     OBJ        0
    u[6,8]     primal_lower 68
    u[7,0]     OBJ        0
    u[7,0]     primal_lower 75
    u[7,4]     OBJ        0
    u[7,4]     primal_lower 16
    u[7,5]     OBJ        0
    u[7,5]     primal_lower 13
    u[7,8]     OBJ        0
    u[7,8]     primal_lower 69
    u[8,0]     OBJ        0
    u[8,0]     primal_lower 28
    u[8,1]     OBJ        0
    u[8,1]     primal_lower 55
    u[8,2]     OBJ        0
    u[8,2]     primal_lower 98
    u[8,3]     OBJ        0
    u[8,3]     primal_lower 52
    u[8,4]     OBJ        0
    u[8,4]     primal_lower 32
    u[8,5]     OBJ        0
    u[8,5]     primal_lower 36
    u[8,6]     OBJ        0
    u[8,6]     primal_lower 26
    u[8,7]     OBJ        0
    u[8,7]     primal_lower 50
    MARKER    'MARKER'                 'INTEND'
RHS
    RHS       primal_lower 261
BOUNDS
 LI BND       y[0,1]     0
 UI BND       y[0,1]     1
 LI BND       y[0,2]     0
 UI BND       y[0,2]     1
 LI BND       y[0,3]     0
 UI BND       y[0,3]     1
 LI BND       y[0,4]     0
 UI BND       y[0,4]     1
 LI BND       y[0,5]     0
 UI BND       y[0,5]     1
 LI BND       y[0,6]     0
 UI BND       y[0,6]     1
 LI BND       y[0,7]     0
 UI BND       y[0,7]     1
 LI BND       y[0,8]     0
 UI BND       y[0,8]     1
 LI BND       y[1,0]     0
 UI BND       y[1,0]     1
 LI BND       y[1,2]     0
 UI BND       y[1,2]     1
 LI BND       y[1,3]     0
 UI BND       y[1,3]     1
 LI BND       y[1,4]     0
 UI BND       y[1,4]     1
 LI BND       y[1,5]     0
 UI BND       y[1,5]     1
 LI BND       y[1,6]     0
 UI BND       y[1,6]     1
 LI BND       y[1,8]     0
 UI BND       y[1,8]     1
 LI BND       y[2,0]     0
 UI BND       y[2,0]     1
 LI BND       y[2,1]     0
 UI BND       y[2,1]     1
 LI BND       y[2,3]     0
 UI BND       y[2,3]     1
 LI BND       y[2,5]     0
 UI BND       y[2,5]     1
 LI BND       y[2,6]     0
 UI BND       y[2,6]     1
 LI BND       y[2,8]     0
 UI BND       y[2,8]     1
 LI BND       y[3,0]     0
 UI BND       y[3,0]     1
 LI BND       y[3,1]     0
 UI BND       y[3,1]     1
 LI BND       y[3,2]     0
 UI BND       y[3,2]     1
 LI BND       y[3,5]     0
 UI BND       y[3,5]     1
 LI BND       y[3,6]     0
 UI BND       y[3,6]     1
 LI BND       y[3,8]     0
 UI BND       y[3,8]     1
 LI BND       y[4,0]     0
 UI BND       y[4,0]     1
 LI BND       y[4,1]     0
 UI BND       y[4,1]     1
 LI BND       y[4,5]     0
 UI BND       y[4,5]     1
 LI BND       y[4,7]     0
 UI BND       y[4,7]     1
 LI BND       y[4,8]     0
 UI BND       y[4,8]     1
 LI BND       y[5,0]     0
 UI BND       y[5,0]     1
 LI BND       y[5,1]     0
 UI BND       y[5,1]     1
 LI BND       y[5,2]     0
 UI BND       y[5,2]     1
 LI BND       y[5,3]     0
 UI BND       y[5,3]     1
 LI BND       y[5,4]     0
 UI BND       y[5,4]     1
 LI BND       y[5,6]     0
 UI BND       y[5,6]     1
 LI BND       y[5,7]     0
 UI BND       y[5,7]     1
 LI BND       y[5,8]     0
 UI BND       y[5,8]     1
 LI BND       y[6,0]     0
 UI BND       y[6,0]     1
 LI BND       y[6,1]     0
 UI BND       y[6,1]     1
 LI BND       y[6,2]     0
 UI BND       y[6,2]     1
 LI BND       y[6,3]     0
 UI BND       y[6,3]     1
 LI BND       y[6,5]     0
 UI BND       y[6,5]     1
 LI BND       y[6,8]     0
 UI BND       y[6,8]     1
 LI BND       y[7,0]     0
 UI BND       y[7,0]     1
 LI BND       y[7,4]     0
 UI BND       y[7,4]     1
 LI BND       y[7,5]     0
 UI BND       y[7,5]     1
 LI BND       y[7,8]     0
 UI BND       y[7,8]     1
 LI BND       y[8,0]     0
 UI BND       y[8,0]     1
 LI BND       y[8,1]     0
 UI BND       y[8,1]     1
 LI BND       y[8,2]     0
 UI BND       y[8,2]     1
 LI BND       y[8,3]     0
 UI BND       y[8,3]     1
 LI BND       y[8,4]     0
 UI BND       y[8,4]     1
 LI BND       y[8,5]     0
 UI BND       y[8,5]     1
 LI BND       y[8,6]     0
 UI BND       y[8,6]     1
 LI BND       y[8,7]     0
 UI BND       y[8,7]     1
 LI BND       u[0,1]     0
 UI BND       u[0,1]     1
 LI BND       u[0,2]     0
 UI BND       u[0,2]     1
 LI BND       u[0,3]     0
 UI BND       u[0,3]     1
 LI BND       u[0,4]     0
 UI BND       u[0,4]     1
 LI BND       u[0,5]     0
 UI BND       u[0,5]     1
 LI BND       u[0,6]     0
 UI BND       u[0,6]     1
 LI BND       u[0,7]     0
 UI BND       u[0,7]     1
 LI BND       u[0,8]     0
 UI BND       u[0,8]     1
 LI BND       u[1,0]     0
 UI BND       u[1,0]     1
 LI BND       u[1,2]     0
 UI BND       u[1,2]     1
 LI BND       u[1,3]     0
 UI BND       u[1,3]     1
 LI BND       u[1,4]     0
 UI BND       u[1,4]     1
 LI BND       u[1,5]     0
 UI BND       u[1,5]     1
 LI BND       u[1,6]     0
 UI BND       u[1,6]     1
 LI BND       u[1,8]     0
 UI BND       u[1,8]     1
 LI BND       u[2,0]     0
 UI BND       u[2,0]     1
 LI BND       u[2,1]     0
 UI BND       u[2,1]     1
 LI BND       u[2,3]     0
 UI BND       u[2,3]     1
 LI BND       u[2,5]     0
 UI BND       u[2,5]     1
 LI BND       u[2,6]     0
 UI BND       u[2,6]     1
 LI BND       u[2,8]     0
 UI BND       u[2,8]     1
 LI BND       u[3,0]     0
 UI BND       u[3,0]     1
 LI BND       u[3,1]     0
 UI BND       u[3,1]     1
 LI BND       u[3,2]     0
 UI BND       u[3,2]     1
 LI BND       u[3,5]     0
 UI BND       u[3,5]     1
 LI BND       u[3,6]     0
 UI BND       u[3,6]     1
 LI BND       u[3,8]     0
 UI BND       u[3,8]     1
 LI BND       u[4,0]     0
 UI BND       u[4,0]     1
 LI BND       u[4,1]     0
 UI BND       u[4,1]     1
 LI BND       u[4,5]     0
 UI BND       u[4,5]     1
 LI BND       u[4,7]     0
 UI BND       u[4,7]     1
 LI BND       u[4,8]     0
 UI BND       u[4,8]     1
 LI BND       u[5,0]     0
 UI BND       u[5,0]     1
 LI BND       u[5,1]     0
 UI BND       u[5,1]     1
 LI BND       u[5,2]     0
 UI BND       u[5,2]     1
 LI BND       u[5,3]     0
 UI BND       u[5,3]     1
 LI BND       u[5,4]     0
 UI BND       u[5,4]     1
 LI BND       u[5,6]     0
 UI BND       u[5,6]     1
 LI BND       u[5,7]     0
 UI BND       u[5,7]     1
 LI BND       u[5,8]     0
 UI BND       u[5,8]     1
 LI BND       u[6,0]     0
 UI BND       u[6,0]     1
 LI BND       u[6,1]     0
 UI BND       u[6,1]     1
 LI BND       u[6,2]     0
 UI BND       u[6,2]     1
 LI BND       u[6,3]     0
 UI BND       u[6,3]     1
 LI BND       u[6,5]     0
 UI BND       u[6,5]     1
 LI BND       u[6,8]     0
 UI BND       u[6,8]     1
 LI BND       u[7,0]     0
 UI BND       u[7,0]     1
 LI BND       u[7,4]     0
 UI BND       u[7,4]     1
 LI BND       u[7,5]     0
 UI BND       u[7,5]     1
 LI BND       u[7,8]     0
 UI BND       u[7,8]     1
 LI BND       u[8,0]     0
 UI BND       u[8,0]     1
 LI BND       u[8,1]     0
 UI BND       u[8,1]     1
 LI BND       u[8,2]     0
 UI BND       u[8,2]     1
 LI BND       u[8,3]     0
 UI BND       u[8,3]     1
 LI BND       u[8,4]     0
 UI BND       u[8,4]     1
 LI BND       u[8,5]     0
 UI BND       u[8,5]     1
 LI BND       u[8,6]     0
 UI BND       u[8,6]     1
 LI BND       u[8,7]     0
 UI BND       u[8,7]     1
ENDATA
